NAME : rdp106.1240462.tour
COMMENT : Cost = 0_1240462
COMMENT : Found by LKH [Keld Helsgaun] Thu Sep 14 15:53:22 2017
TYPE : TOUR
DIMENSION : 113
TOUR_SECTION
1
49
48
37
20
50
47
83
8
53
112
28
63
89
19
90
106
27
40
24
68
56
55
5
26
104
60
38
15
45
39
87
44
101
99
94
107
64
65
12
91
11
32
103
29
30
79
80
69
25
81
13
105
97
86
92
17
62
100
7
109
77
41
54
102
22
74
73
23
42
76
57
75
3
59
110
70
31
52
82
10
36
35
4
78
111
51
34
66
72
67
21
33
71
2
113
95
93
43
16
58
88
98
96
14
108
84
46
9
85
18
6
61
-1
EOF
